396
323
303
354
343
370
370
415
423
368
423
375
428
343
362
345
346
345
326
449
316
311
363
340
403
387
346
298
420
424
0
405
337
384
426
396
376
326
387
323
237
389
396
418
399
361
336
386
269
311
324
345
314
337
349
371
433
307
267
365
304
375
408
413
338
432
354
320
358
406
354
384
322
381
338
367
357
338
381
288
370
350
308
269
346
297
325
350
367
342
383
343
297
365
343
370
372
326
358
432
